Set parameter TokenServer to value "hpc-licenses.hpcc.usc.edu"
Set parameter TimeLimit to value 3600
Gurobi Optimizer version 9.5.1 build v9.5.1rc2 (linux64)
Thread count: 20 physical cores, 20 logical processors, using up to 20 threads
Optimize a model with 6007 rows, 4529 columns and 24534 nonzeros
Model fingerprint: 0x5185124c
Variable types: 4506 continuous, 23 integer (23 binary)
Coefficient statistics:
  Matrix range     [1e+00, 1e+00]
  Objective range  [3e-03, 1e+00]
  Bounds range     [1e+00, 1e+00]
  RHS range        [1e+00, 1e+02]
Presolve removed 1520 rows and 1515 columns
Presolve time: 0.08s
Presolved: 4487 rows, 3014 columns, 21975 nonzeros
Variable types: 2994 continuous, 20 integer (20 binary)
Found heuristic solution: objective 224.0672856

Root relaxation: objective 2.334766e+02, 2859 iterations, 0.08 seconds (0.15 work units)

    Nodes    |    Current Node    |     Objective Bounds      |     Work
 Expl Unexpl |  Obj  Depth IntInf | Incumbent    BestBd   Gap | It/Node Time

     0     0  233.47658    0    2  224.06729  233.47658  4.20%     -    0s
     0     0  233.46006    0    4  224.06729  233.46006  4.19%     -    0s
H    0     0                     233.0028312  233.46006  0.20%     -    0s
     0     0  233.43716    0    4  233.00283  233.43716  0.19%     -    0s
     0     0  233.43716    0    2  233.00283  233.43716  0.19%     -    0s
     0     0  233.43716    0    4  233.00283  233.43716  0.19%     -    1s
     0     0  233.43716    0    4  233.00283  233.43716  0.19%     -    1s
     0     0  233.30191    0    5  233.00283  233.30191  0.13%     -    1s
     0     0  233.16102    0    5  233.00283  233.16102  0.07%     -    1s

Cutting planes:
  Gomory: 2
  Implied bound: 197
  MIR: 45
  Flow cover: 218
  RLT: 5
  Relax-and-lift: 243

Explored 1 nodes (5110 simplex iterations) in 1.62 seconds (0.80 work units)
Thread count was 20 (of 20 available processors)

Solution count 2: 233.003 224.067 

Optimal solution found (tolerance 1.00e-04)
Best objective 2.330028311852e+02, best bound 2.330046710116e+02, gap 0.0008%



#########node  1
V1.7
#########node  2
0.07894736842105324,0.9210526315789468
#########node  3
1.0,0.0


Total Solving Time 2.0203864574432373
obj value 233.00283118520133
Policy Regret train (Sum) 4.147362670960024
Best Treatment Found train (%) 70.19999999999999
treatment classification acc train (%) 35.6
Policy Regret test (Sum) 63.74597884426457
Best Treatment Found test (%) 73.06
treatment classification acc test (%) 34.760000000000005
